Gurobi Optimizer version 9.1.2 build v9.1.2rc0 (linux64)
Thread count: 36 physical cores, 72 logical processors, using up to 32 threads
Optimize a model with 12 rows, 57 columns and 590 nonzeros
Model fingerprint: 0xf32eec78
Model has 47 quadratic constraints
Coefficient statistics:
  Matrix range     [2e-05, 3e+00]
  QMatrix range    [1e+00, 1e+00]
  QLMatrix range   [1e+00, 1e+00]
  Objective range  [8e-03, 7e-01]
  Bounds range     [1e+00, 1e+00]
  RHS range        [1e+00, 1e+00]
Presolve removed 9 rows and 0 columns

Continuous model is non-convex -- solving as a MIP.

Presolve removed 9 rows and 0 columns
Presolve time: 0.03s
Presolved: 189 rows, 57 columns, 443 nonzeros
Presolved model has 47 bilinear constraint(s)
Variable types: 57 continuous, 0 integer (0 binary)

Root relaxation: objective -1.743721e+00, 44 iterations, 0.00 seconds

    Nodes    |    Current Node    |     Objective Bounds      |     Work
 Expl Unexpl |  Obj  Depth IntInf | Incumbent    BestBd   Gap | It/Node Time

     0     0   -1.74372    0   38          -   -1.74372      -     -    0s
H    0     0                       0.6147548   -1.74372   384%     -    0s
     0     0   -1.64739    0    1    0.61475   -1.64739   368%     -    0s
H    0     0                      -1.6450460   -1.64739  0.14%     -    0s
     0     0     cutoff    0        -1.64505   -1.64505  0.00%     -    0s

Cutting planes:
  RLT: 25
  BQP: 3

Explored 1 nodes (76 simplex iterations) in 0.09 seconds
Thread count was 32 (of 72 available processors)

Solution count 2: -1.64505 0.614755 
No other solutions better than -1.64505

Optimal solution found (tolerance 1.00e-04)
Best objective -1.645045978473e+00, best bound -1.645045978473e+00, gap 0.0000%

User-callback calls 88, time in user-callback 0.00 sec
Gurobi Optimizer version 9.1.2 build v9.1.2rc0 (linux64)
Thread count: 36 physical cores, 72 logical processors, using up to 32 threads
Optimize a model with 12 rows, 55 columns and 570 nonzeros
Model fingerprint: 0x82f874f3
Model has 45 quadratic constraints
Coefficient statistics:
  Matrix range     [9e-05, 1e+00]
  QMatrix range    [1e+00, 1e+00]
  QLMatrix range   [1e+00, 1e+00]
  Objective range  [9e-02, 2e+00]
  Bounds range     [1e+00, 1e+00]
  RHS range        [1e+00, 1e+00]
Presolve removed 9 rows and 0 columns

Continuous model is non-convex -- solving as a MIP.

Presolve removed 9 rows and 0 columns
Presolve time: 0.00s
Presolved: 183 rows, 55 columns, 432 nonzeros
Presolved model has 45 bilinear constraint(s)
Variable types: 55 continuous, 0 integer (0 binary)

Root relaxation: objective -8.766026e+00, 39 iterations, 0.00 seconds

    Nodes    |    Current Node    |     Objective Bounds      |     Work
 Expl Unexpl |  Obj  Depth IntInf | Incumbent    BestBd   Gap | It/Node Time

     0     0   -8.76603    0    6          -   -8.76603      -     -    0s
H    0     0                      -8.5104049   -8.76603  3.00%     -    0s
     0     0   -8.65819    0    3   -8.51040   -8.65819  1.74%     -    0s
H    0     0                      -8.6539332   -8.65819  0.05%     -    0s
     0     0   -8.65609    0    3   -8.65393   -8.65609  0.02%     -    0s
H    0     0                      -8.6544578   -8.65609  0.02%     -    0s
     0     0   -8.65555    0    3   -8.65446   -8.65555  0.01%     -    0s
H    0     0                      -8.6544610   -8.65555  0.01%     -    0s
H    0     0                      -8.6545474   -8.65555  0.01%     -    0s
     0     2   -8.65539    0    3   -8.65455   -8.65539  0.01%     -    0s

Cutting planes:
  RLT: 3

Explored 1 nodes (177 simplex iterations) in 0.04 seconds
Thread count was 32 (of 72 available processors)

Solution count 5: -8.65455 -8.65446 -8.65446 ... -8.5104

Optimal solution found (tolerance 1.00e-04)
Best objective -8.654547377710e+00, best bound -8.655389811056e+00, gap 0.0097%

User-callback calls 104, time in user-callback 0.00 sec



objective value: -8.654547377710315
objective bound: -8.65538981105558
x_opt: [0.9999999999999998, 1.0000000000000002, 0.822402253516911, 0.13844276657121493, 0.0, 1.0, 0.03885408338083947, 1.0, 1.0, 1.0]
GUROBI solution time: 0.04181385040283203

